unsat
(:binary-propagations  41
 :conflicts            1
 :final-checks         1
 :max-generation       1
 :max-memory           25.44
 :memory               21.46
 :mk-bool-var          1331
 :mk-clause            376
 :mk-clause-binary     1567
 :num-allocs           27980387
 :num-checks           1
 :propagations         41
 :quant-instantiations 286
 :restarts             1
 :rlimit-count         315625
 :time                 0.05)
